(declare-fun e () String)
(declare-fun c () String)
(declare-fun b () String)
(declare-fun d () String)
(declare-fun a () String)
(declare-fun h () String)
(assert (= (str.++ b h b) (str.++ d "b")))
(assert (= (str.++ "c" e "be" a) (str.++ c "d" h "h")))
(assert (= (str.++ "ee" a) e))

(check-sat)
